(declare-fun temp2919_1 () (_ BitVec 64))
(declare-fun var262370 () (_ BitVec 64))
(declare-fun temp2919_2 () (_ BitVec 64))
(declare-fun temp2919_3 () (_ BitVec 64))
(declare-fun var131812 () (_ BitVec 64))
(declare-fun k!0 () Bool)
(declare-fun ARGNAME_x_NAMEEND_DIM () (_ BitVec 64))
(declare-fun temp2919_4 () (_ BitVec 64))
(declare-fun var131298 () (_ BitVec 64))
(declare-fun temp2919_5 () (_ BitVec 64))
(declare-fun temp2919_6 () (_ BitVec 64))
(declare-fun ARGNAME_x_NAMEEND_DIMSIZE () (Array (_ BitVec 64) (_ BitVec 64)))
(declare-fun temp2919_7 () (_ BitVec 64))
(declare-fun temp2919_8 () (_ BitVec 64))
(declare-fun temp2919_9 () (_ BitVec 64))
(declare-fun temp2919_10 () (_ BitVec 64))
(declare-fun temp2919_11 () (_ BitVec 64))
(declare-fun temp2919_12 () (_ BitVec 64))
(declare-fun temp2919_13 () (_ BitVec 64))
(declare-fun temp2919_14 () (_ BitVec 64))
(declare-fun temp2919_15 () (_ BitVec 64))
(declare-fun temp2919_16 () (_ BitVec 64))
(declare-fun temp2919_17 () (_ BitVec 64))
(declare-fun temp2919_18 () (_ BitVec 64))
(declare-fun temp2919_19 () (_ BitVec 64))
(declare-fun temp2919_20 () (_ BitVec 64))
(declare-fun temp2919_21 () (_ BitVec 64))
(declare-fun temp2919_22 () (_ BitVec 64))
(declare-fun temp2919_23 () (_ BitVec 64))
(declare-fun temp2919_24 () (_ BitVec 64))
(declare-fun temp2919_25 () (_ BitVec 64))
(declare-fun var131815 () (_ BitVec 64))
(declare-fun temp2919_27 () (_ BitVec 64))
(declare-fun temp2919_26 () (_ BitVec 64))
(declare-fun temp2919_28 () (_ BitVec 64))
(declare-fun var592370 () (_ BitVec 64))
(declare-fun var592372 () (_ BitVec 64))
(declare-fun var658108 () (_ BitVec 64))
(declare-fun temp2919_29 () (_ BitVec 64))
(declare-fun temp2919_30 () (_ BitVec 64))
(declare-fun temp2919_31 () (_ BitVec 64))
(declare-fun temp2919_32 () (_ BitVec 64))
(declare-fun var131845 () (_ BitVec 64))
(declare-fun temp2919_34 () (_ BitVec 64))
(declare-fun temp2919_33 () (_ BitVec 64))
(declare-fun temp2919_36 () (_ BitVec 64))
(declare-fun temp2919_35 () (_ BitVec 64))
(declare-fun temp2919_37 () (_ BitVec 64))
(declare-fun var1705254 () (_ BitVec 64))
(declare-fun temp2919_38 () (_ BitVec 64))
(declare-fun var1705302 () (_ BitVec 64))
(declare-fun temp2919_39 () (_ BitVec 64))
(declare-fun temp2919_41 () (_ BitVec 64))
(declare-fun temp2919_40 () (_ BitVec 64))
(declare-fun temp2919_42 () (_ BitVec 64))
(declare-fun var2164006 () (_ BitVec 64))
(assert (= temp2919_1 #x0000000000000000))
(assert (= var262370 temp2919_1))
(assert (= temp2919_2 #x0000000000000001))
(assert (= var131812
   (ite (= ARGNAME_x_NAMEEND_DIM temp2919_2)
        #x0000000000000001
        #x0000000000000000)))
(assert (= temp2919_3 #x0000000000000001))
(assert (= var131812 temp2919_3))
(assert (= temp2919_4 #x0000000000000000))
(assert (= var131298 temp2919_4))
(assert (= temp2919_5 #x0000000000000000))
(assert (= temp2919_6 temp2919_5))
(assert (= temp2919_7 (select ARGNAME_x_NAMEEND_DIMSIZE temp2919_6)))
(assert (= temp2919_8 #x0000000000000001))
(assert (= temp2919_9 temp2919_8))
(assert (= temp2919_10 (select ARGNAME_x_NAMEEND_DIMSIZE temp2919_9)))
(assert (= temp2919_11 #x0000000000000002))
(assert (= temp2919_12 temp2919_11))
(assert (= temp2919_13 (select ARGNAME_x_NAMEEND_DIMSIZE temp2919_12)))
(assert (= temp2919_14 #x0000000000000003))
(assert (= temp2919_15 temp2919_14))
(assert (= temp2919_16 (select ARGNAME_x_NAMEEND_DIMSIZE temp2919_15)))
(assert (= temp2919_17 #x0000000000000004))
(assert (= temp2919_18 temp2919_17))
(assert (= temp2919_19 (select ARGNAME_x_NAMEEND_DIMSIZE temp2919_18)))
(assert (= temp2919_20 #x0000000000000005))
(assert (= temp2919_21 temp2919_20))
(assert (= temp2919_22 (select ARGNAME_x_NAMEEND_DIMSIZE temp2919_21)))
(assert (= temp2919_23 #x0000000000000000))
(assert (= temp2919_24
   (ite (bvslt var131298 temp2919_23)
        (bvadd ARGNAME_x_NAMEEND_DIM var131298)
        var131298)))
(assert (= temp2919_25 (select ARGNAME_x_NAMEEND_DIMSIZE temp2919_24)))
(assert (= var131815 temp2919_25))
(assert (bvslt (ite (bvslt var131298 temp2919_23)
            (bvadd ARGNAME_x_NAMEEND_DIM var131298)
            var131298)
       ARGNAME_x_NAMEEND_DIM))
(assert (= temp2919_27 #x0000000000000001))
(assert (= temp2919_26 temp2919_27))
(assert (= temp2919_28 #x0000000000000005))
(assert (= var592370 temp2919_28))
(assert (= var592372 var592370))
(assert (= var658108 var592372))
(assert (= temp2919_29 #x0000000000000000))
(assert (= var131298 temp2919_29))
(assert (= temp2919_30 #x0000000000000000))
(assert (= temp2919_31
   (ite (bvslt var131298 temp2919_30)
        (bvadd ARGNAME_x_NAMEEND_DIM var131298)
        var131298)))
(assert (= temp2919_32 (select ARGNAME_x_NAMEEND_DIMSIZE temp2919_31)))
(assert (= var131845 temp2919_32))
(assert (bvslt (ite (bvslt var131298 temp2919_30)
            (bvadd ARGNAME_x_NAMEEND_DIM var131298)
            var131298)
       ARGNAME_x_NAMEEND_DIM))
(assert (= temp2919_34 #x0000000000000000))
(assert (= temp2919_33 temp2919_34))
(assert (= temp2919_36 #xffffffffffffffff))
(assert (= temp2919_35 temp2919_36))
(assert (= temp2919_37 #x0000000000000001))
(assert (= var1705254 temp2919_37))
(assert (= temp2919_38 #x0000000000000000))
(assert (= var1705302 temp2919_38))
(assert (= temp2919_39 #x0000000000000000))
(assert (= var1705302 temp2919_39))
(assert (= temp2919_41 #x0000000000000001))
(assert (= temp2919_40 temp2919_41))
(assert (= temp2919_42 #x0000000000000001))
(assert (= var2164006 temp2919_42))
(model-add temp2919_1 () (_ BitVec 64) #x0000000000000000)
(model-add var262370 () (_ BitVec 64) #x0000000000000000)
(model-add temp2919_2 () (_ BitVec 64) #x0000000000000001)
(model-add temp2919_3 () (_ BitVec 64) #x0000000000000001)
(model-add var131812 () (_ BitVec 64) #x0000000000000001)
(model-del k!0)
(model-add ARGNAME_x_NAMEEND_DIM
           ()
           (_ BitVec 64)
           (ite k!0 #x0000000000000001 (bvnot #x0000000000000001)))




